N = 9;
H = 5;
T = 2;

avail = array3d(1..N, 1..H, 1..T, [6, 2, 10, 2, 9, 2, 3, 10, 6, 9, 10, 8, 2, 1, 6, 1, 5, 9, 7, 8, 9, 10, 8, 3, 3, 1, 9, 9, 0, 1, 6, 9, 3, 2, 6, 1, 2, 5, 6, 8, 1, 0, 9, 6, 10, 3, 9, 6, 0, 9, 7, 10, 3, 2, 6, 2, 4, 6, 2, 0, 0, 0, 4, 8, 2, 4, 6, 2, 2, 8, 7, 8, 1, 0, 3, 7, 8, 6, 7, 7, 8, 10, 0, 7, 1, 4, 10, 6, 0, 6]);

r = array2d(1..H, 1..T, [4, 3, 2, 4, 2, 1, 1, 0, 3, 4]);
